Route #1: 40 46 60 
Route #2: 59 49 39 45 1 14 53 56 
Route #3: 32 57 28 30 36 
Route #4: 35 27 8 37 61 7 50 
Route #5: 10 19 42 3 18 5 15 
Route #6: 31 44 51 55 33 58 
Route #7: 38 34 11 47 22 24 17 
Route #8: 29 16 54 21 23 4 48 
Route #9: 20 62 13 26 43 52 
Route #10: 25 41 9 2 12 6 
cost 1594.16
execution_time 32.39
